JulietBench/Juliet_Based_Patch_Bench/FFmpeg/CWE-369-Divide-By-Zero/CVE_2018_14395_fa19fbcf712a6a6cc5a5cfdc3254a97b9bce6582/solvermov_write_audio_tag_patch2.smt2
; benchmark generated from python API
(set-info :status unknown)
(declare-fun R () (_ BitVec 32))
(declare-fun rdi () (_ BitVec 64))
(declare-fun rsi () (_ BitVec 64))
(assert
 (let (($x89 (and (distinct (_ bv1 32) R) true)))
 (let (($x84 (= (_ bv0 32) R)))
 (let ((?x6 ((_ extract 31 0) rdi)))
 (let (($x41 (and (distinct (_ bv2 32) ?x6) true)))
 (let (($x85 (and $x41 $x84)))
 (let (($x82 (= (_ bv1 32) R)))
 (let (($x15 (= (_ bv2 32) ?x6)))
 (let ((?x8 ((_ extract 31 0) rsi)))
 (let (($x54 (bvule ?x8 (_ bv65535 32))))
 (let (($x83 (and $x54 $x15 $x82)))
 (let (($x11 (= (_ bv2 32) R)))
 (let (($x70 (bvugt ?x8 (_ bv65535 32))))
 (let (($x79 (and $x70 $x15 $x11)))
 (let (($x86 (or $x79 $x83 $x85)))
 (let (($x88 (not $x86)))
 (let (($x90 (and $x88 $x89)))
 (let (($x87 (and $x86 $x82)))
 (let (($x91 (or $x87 $x90)))
 (not $x91))))))))))))))))))))
(check-sat)
